c read Graph
c width = 516
c time = 1284 ms
c width = 33
c time = 5389 ms
c width = 31
c time = 7085 ms
c width = 30
c time = 7882 ms
c width = 29
c time = 13317 ms
c width = 28
c time = 25599 ms
c width = 27
c time = 32959 ms
c width = 26
c time = 43667 ms
c width = 25
c time = 57845 ms
c width = 24
c time = 85362 ms
c width = 23
c time = 181801 ms
c width = 23
c time = 184456 ms
s td 456 24 529
b 1 1 2 24
b 2 2 3 24 25
b 3 21 22 45 46
b 4 3 24 25 47
b 5 21 45 46 69
b 6 461 484 485 508
b 7 483 505 506 528
b 8 461 485 508 509
b 9 483 505 527 528
b 10 3 4 5 27
b 11 3 5 26 27 48 70
b 12 3 26 47 48 70
b 13 3 25 26 47 48
b 14 5 26 27 48 50 70 72
b 15 26 48 49 50 72
b 16 5 27 48 50 70 71 72
b 17 5 27 28 50 70 71 72
b 18 5 28 50 70 71 72 94
b 19 5 28 50 70 72 94 116
b 20 5 28 50 52 72 74 94 96 116
b 21 5 28 52 72 74 94 96 116 118
b 22 5 9 28 31 52 53 74 94 96 116 118
b 23 9 31 52 53 74 77 94 96 98 99 116 118
b 24 52 53 74 75 77 98 99
b 25 53 75 76 77 99
b 26 9 31 53 55 74 77 94 96 98 99 116 118
b 27 9 31 55 74 77 94 96 98 99 116 118 120
b 28 74 96 97 98 120
b 29 9 31 55 77 94 96 98 99 116 118 120 142
b 30 96 118 119 120 142
b 31 9 31 55 77 94 98 99 116 118 120 123 142 146 166 168 190
b 32 9 31 55 77 94 99 116 118 123 142 146 166 168 186 190 208 210 212 234
b 33 9 31 55 77 99 123 146 147 168 171 186 190 194 208 210 212 216 234 238 258 260 282
b 34 9 31 55 77 99 123 147 171 186 194 208 210 216 234 238 258 260 282 300 304 324 326 348
b 35 9 31 55 77 79 99 103 123 127 147 149 171 194 216 238 260 282 300 304 324 326 348
b 36 9 31 55 79 103 127 147 149 171 194 216 238 260 282 300 304 324 326 348
b 37 55 77 79 99 103 123 125 127 147 149 171
b 38 55 77 79 99 101 103 123 125 147
b 39 77 99 100 101 123
b 40 79 101 102 103 125
b 41 55 77 78 79 101
b 42 101 123 124 125 147
b 43 103 125 126 127 149
b 44 125 147 148 149 171
b 45 9 13 31 35 55 59 79 83 103 106 127 128 149 171 194 216 238 260 282 300 304 324 326 348
b 46 13 17 35 39 59 61 79 83 103 106 127 128 149 171 194 216 238 260 282 300 304 324 326 348
b 47 17 18 39 40 59 61 79 83 103 106 127 128 149 171 194 216 238 260 282 300 304 324 326 348
b 48 18 39 40 59 61 62 79 83 103 106 127 128 149 171 194 216 238 260 282 300 304 324 326 348
b 49 18 19 40 41 61 62 79 83 103 106 127 128 149 171 194 216 238 260 282 300 304 324 326 348
b 50 19 40 41 61 62 63 79 83 103 106 127 128 149 171 194 216 238 260 282 300 304 324 326 348
b 51 19 41 61 62 63 79 83 84 103 106 127 128 149 171 194 216 238 260 282 300 304 324 326 348
b 52 19 41 62 63 79 83 84 85 103 106 127 128 149 171 194 216 238 260 282 300 304 324 326 348
b 53 19 20 41 42 63 83 84 85 103 106 127 128 149 171 194 216 238 260 282 300 304 324 326 348
b 54 20 41 42 63 64 83 84 85 103 106 127 128 149 171 194 216 238 260 282 300 304 324 326 348
b 55 20 42 63 64 83 84 85 86 103 106 127 128 149 171 194 216 238 260 282 300 304 324 326 348
b 56 20 21 42 43 64 84 85 86 103 106 127 128 149 171 194 216 238 260 282 300 304 324 326 348
b 57 21 42 43 64 65 84 85 86 103 106 127 128 149 171 194 216 238 260 282 300 304 324 326 348
b 58 21 43 64 65 84 85 86 87 103 106 127 128 149 171 194 216 238 260 282 300 304 324 326 348
b 59 21 43 65 84 85 86 87 103 106 107 127 128 149 171 194 216 238 260 282 300 304 324 326 348
b 60 21 43 65 85 86 87 103 106 107 108 127 128 149 171 194 216 238 260 282 300 304 324 326 348
b 61 21 43 65 86 87 103 106 107 108 109 127 128 149 171 194 216 238 260 282 300 304 324 326 348
b 62 21 43 44 65 66 87 106 107 108 109 127 128 149 171 194 216 238 260 282 300 304 324 326 348
b 63 21 44 65 66 87 88 106 107 108 109 127 128 149 171 194 216 238 260 282 300 304 324 326 348
b 64 21 44 66 87 88 106 107 108 109 110 127 128 149 171 194 216 238 260 282 300 304 324 326 348
b 65 21 44 66 88 106 107 108 109 110 127 128 129 149 171 194 216 238 260 282 300 304 324 326 348
b 66 21 44 66 88 107 108 109 110 127 128 129 130 149 171 194 216 238 260 282 300 304 324 326 348
b 67 21 44 66 88 108 109 110 127 128 129 130 131 149 171 194 216 238 260 282 300 304 324 326 348
b 68 21 44 66 88 109 110 127 128 129 130 131 132 149 171 194 216 238 260 282 300 304 324 326 348
b 69 21 44 66 88 110 127 128 129 130 131 132 149 150 171 194 216 238 260 282 300 304 324 326 348
b 70 21 44 66 88 110 128 129 130 131 132 149 150 151 171 194 216 238 260 282 300 304 324 326 348
b 71 21 44 66 88 110 129 130 131 132 149 150 151 152 171 194 216 238 260 282 300 304 324 326 348
b 72 21 44 66 88 110 130 131 132 149 150 151 152 153 171 194 216 238 260 282 300 304 324 326 348
b 73 21 44 66 88 110 131 132 149 150 151 152 153 154 171 194 216 238 260 282 300 304 324 326 348
b 74 21 44 66 88 110 132 149 150 151 152 153 154 171 172 194 216 238 260 282 300 304 324 326 348
b 75 21 44 66 88 110 132 150 151 152 153 154 171 172 173 194 216 238 260 282 300 304 324 326 348
b 76 21 44 66 88 110 132 151 152 153 154 171 172 173 174 194 216 238 260 282 300 304 324 326 348
b 77 21 44 66 88 110 132 152 153 154 171 172 173 174 175 194 216 238 260 282 300 304 324 326 348
b 78 21 44 66 88 110 132 153 154 171 172 173 174 175 176 194 216 238 260 282 300 304 324 326 348
b 79 21 44 45 66 69 88 110 132 154 172 173 174 175 176 194 216 238 260 282 300 304 324 326 348
b 80 44 45 66 67 69 88 110 132 154 172 173 174 175 176 194 216 238 260 282 300 304 324 326 348
b 81 45 66 67 68 69 88 110 132 154 172 173 174 175 176 194 216 238 260 282 300 304 324 326 348
b 82 66 67 68 69 88 89 110 132 154 172 173 174 175 176 194 216 238 260 282 300 304 324 326 348
b 83 67 68 69 88 89 90 110 132 154 172 173 174 175 176 194 216 238 260 282 300 304 324 326 348
b 84 68 69 88 89 90 91 110 132 154 172 173 174 175 176 194 216 238 260 282 300 304 324 326 348
b 85 69 88 89 90 91 92 110 132 154 172 173 174 175 176 194 216 238 260 282 300 304 324 326 348
b 86 88 89 90 91 92 110 111 132 154 172 173 174 175 176 194 216 238 260 282 300 304 324 326 348
b 87 89 90 91 92 110 111 112 132 154 172 173 174 175 176 194 216 238 260 282 300 304 324 326 348
b 88 90 91 92 110 111 112 113 132 154 172 173 174 175 176 194 216 238 260 282 300 304 324 326 348
b 89 91 92 110 111 112 113 114 132 154 172 173 174 175 176 194 216 238 260 282 300 304 324 326 348
b 90 92 110 111 112 113 114 115 132 154 172 173 174 175 176 194 216 238 260 282 300 304 324 326 348
b 91 110 111 112 113 114 115 132 133 154 172 173 174 175 176 194 216 238 260 282 300 304 324 326 348
b 92 111 112 113 114 115 132 133 134 154 172 173 174 175 176 194 216 238 260 282 300 304 324 326 348
b 93 112 113 114 115 132 133 134 135 154 172 173 174 175 176 194 216 238 260 282 300 304 324 326 348
b 94 113 114 115 132 133 134 135 136 154 172 173 174 175 176 194 216 238 260 282 300 304 324 326 348
b 95 114 115 132 133 134 135 136 137 154 172 173 174 175 176 194 216 238 260 282 300 304 324 326 348
b 96 115 132 133 134 135 136 137 138 154 172 173 174 175 176 194 216 238 260 282 300 304 324 326 348
b 97 132 133 134 135 136 137 138 154 155 172 173 174 175 176 194 216 238 260 282 300 304 324 326 348
b 98 133 134 135 136 137 138 154 155 156 172 173 174 175 176 194 216 238 260 282 300 304 324 326 348
b 99 134 135 136 137 138 154 155 156 157 172 173 174 175 176 194 216 238 260 282 300 304 324 326 348
b 100 135 136 137 138 154 155 156 157 158 172 173 174 175 176 194 216 238 260 282 300 304 324 326 348
b 101 136 137 138 154 155 156 157 158 159 172 173 174 175 176 194 216 238 260 282 300 304 324 326 348
b 102 137 138 154 155 156 157 158 159 160 172 173 174 175 176 194 216 238 260 282 300 304 324 326 348
b 103 138 154 155 156 157 158 159 160 161 172 173 174 175 176 194 216 238 260 282 300 304 324 326 348
b 104 154 155 156 157 158 159 160 161 172 173 174 175 176 177 194 216 238 260 282 300 304 324 326 348
b 105 155 156 157 158 159 160 161 172 173 174 175 176 177 178 194 216 238 260 282 300 304 324 326 348
b 106 156 157 158 159 160 161 172 173 174 175 176 177 178 179 194 216 238 260 282 300 304 324 326 348
b 107 157 158 159 160 161 172 173 174 175 176 177 178 179 180 194 216 238 260 282 300 304 324 326 348
b 108 158 159 160 161 172 173 174 175 176 177 178 179 180 181 194 216 238 260 282 300 304 324 326 348
b 109 159 160 161 172 173 174 175 176 177 178 179 180 181 182 194 216 238 260 282 300 304 324 326 348
b 110 160 161 172 173 174 175 176 177 178 179 180 181 182 183 194 216 238 260 282 300 304 324 326 348
b 111 161 172 173 174 175 176 177 178 179 180 181 182 183 184 194 216 238 260 282 300 304 324 326 348
b 112 172 173 174 175 176 177 178 179 180 181 182 183 184 194 197 216 238 260 282 300 304 324 326 348
b 113 172 173 175 176 177 178 179 180 181 182 183 184 194 197 198 216 238 260 282 300 304 324 326 348
b 114 172 173 176 177 178 179 180 181 182 183 184 194 197 198 200 216 238 260 282 300 304 324 326 348
b 115 172 173 176 178 179 180 181 182 183 184 194 197 198 200 201 216 238 260 282 300 304 324 326 348
b 116 172 173 176 179 180 181 182 183 184 194 197 198 200 201 202 216 238 260 282 300 304 324 326 348
b 117 172 173 176 180 181 182 183 184 194 197 198 200 201 202 203 216 238 260 282 300 304 324 326 348
b 118 172 173 176 181 182 183 184 194 197 198 200 201 202 203 204 216 238 260 282 300 304 324 326 348
b 119 172 173 176 182 183 184 194 197 198 200 201 202 203 204 205 216 238 260 282 300 304 324 326 348
b 120 172 173 176 183 184 194 197 198 200 201 202 203 204 205 206 216 238 260 282 300 304 324 326 348
b 121 172 173 176 184 194 197 198 200 201 202 203 204 205 206 207 216 238 260 282 300 304 324 326 348
b 122 172 173 176 194 197 198 200 201 202 203 204 205 206 207 216 224 238 260 282 300 304 324 326 348
b 123 172 173 176 194 197 198 200 202 203 204 205 206 207 216 224 225 238 260 282 300 304 324 326 348
b 124 172 173 176 194 197 198 200 203 204 205 206 207 216 224 225 226 238 260 282 300 304 324 326 348
b 125 172 173 176 194 197 198 200 204 205 206 207 216 224 225 226 227 238 260 282 300 304 324 326 348
b 126 172 173 176 194 197 198 200 205 206 207 216 224 225 226 227 228 238 260 282 300 304 324 326 348
b 127 172 173 176 194 197 198 200 206 207 216 224 225 226 227 228 230 238 260 282 300 304 324 326 348
b 128 172 173 176 194 197 198 200 206 216 224 225 226 227 228 230 238 252 260 282 300 304 324 326 348
b 129 172 173 176 194 197 198 200 216 224 225 226 227 228 230 238 248 252 260 282 300 304 324 326 348
b 130 172 173 176 194 197 198 200 216 224 226 227 228 230 238 248 249 252 260 282 300 304 324 326 348
b 131 172 173 176 194 197 198 200 216 224 227 228 230 238 248 249 250 252 260 282 300 304 324 326 348
b 132 172 173 176 194 197 198 200 216 224 228 230 238 248 249 250 252 260 272 282 300 304 324 326 348
b 133 172 173 176 194 197 198 200 216 224 228 230 238 248 250 252 260 272 276 282 300 304 324 326 348
b 134 230 238 248 250 252 253 260 272 276 282 300 304 324 326 348
b 135 172 173 176 194 195 197 198 200 216 224 228 238 248 250 252 260 272 276 282 300 304 324 326 348
b 136 173 176 194 195 197 198 200 216 219 224 228 238 248 250 252 260 272 276 282 300 304 324 326 348
b 137 176 194 195 197 198 200 216 219 222 224 228 238 248 250 252 260 272 276 282 300 304 324 326 348
b 138 194 195 197 198 200 216 218 219 222 224 228 238 248 250 252 260 272 276 282 300 304 324 326 348
b 139 194 197 198 200 216 218 219 222 224 228 238 240 248 250 252 260 272 276 282 300 304 324 326 348
b 140 197 198 200 216 218 219 220 222 224 228 238 240 248 250 252 260 272 276 282 300 304 324 326 348
b 141 198 200 216 218 219 220 222 224 228 238 240 244 248 250 252 260 272 276 282 300 304 324 326 348
b 142 200 216 218 219 220 222 224 228 238 240 244 246 248 250 252 260 272 276 282 300 304 324 326 348
b 143 216 218 219 220 222 224 228 238 240 242 244 246 248 250 252 260 272 276 282 300 304 324 326 348
b 144 216 218 220 222 224 228 238 240 242 244 245 246 248 250 252 260 272 276 282 300 304 324 326 348
b 145 216 218 220 224 228 238 240 242 244 245 246 248 250 251 252 260 272 276 282 300 304 324 326 348
b 146 216 218 220 224 238 240 242 244 245 246 248 250 251 252 260 268 272 276 282 300 304 324 326 348
b 147 216 218 220 224 238 240 242 244 246 248 250 251 252 260 268 272 274 276 282 300 304 324 326 348
b 148 216 218 220 224 238 240 242 244 246 248 250 252 260 268 272 274 276 282 296 300 304 324 326 348
b 149 216 218 220 224 238 240 242 244 246 248 252 260 268 272 274 275 276 282 296 300 304 324 326 348
b 150 216 218 220 224 238 240 242 244 246 248 260 268 272 274 275 276 282 296 298 300 304 324 326 348
b 151 216 218 220 224 238 240 242 244 246 248 260 268 272 274 276 282 296 298 300 304 320 324 326 348
b 152 216 218 220 224 238 240 242 244 246 248 260 264 268 272 276 282 296 298 300 304 320 324 326 348
b 153 216 220 224 238 240 242 244 246 248 260 264 266 268 272 276 282 296 298 300 304 320 324 326 348
b 154 216 224 238 240 242 244 246 248 260 264 265 266 268 272 276 282 296 298 300 304 320 324 326 348
b 155 216 224 238 240 244 246 248 260 264 265 266 268 272 276 282 290 296 298 300 304 320 324 326 348
b 156 216 224 238 240 246 248 260 264 265 266 268 272 276 282 288 290 296 298 300 304 320 324 326 348
b 157 216 224 238 240 246 248 260 264 266 268 272 276 282 288 290 296 298 300 304 312 320 324 326 348
b 158 216 224 238 240 246 248 260 262 264 268 272 276 282 288 290 296 298 300 304 312 320 324 326 348
b 159 224 238 240 246 248 260 261 262 264 268 272 276 282 288 290 296 298 300 304 312 320 324 326 348
b 160 224 240 246 248 260 261 262 264 268 272 276 282 286 288 290 296 298 300 304 312 320 324 326 348
b 161 224 246 248 260 261 262 264 268 272 276 282 284 286 288 290 296 298 300 304 312 320 324 326 348
b 162 224 246 248 260 262 264 268 272 276 282 284 286 288 290 296 298 300 304 308 312 320 324 326 348
b 163 262 284 285 286 308
b 164 224 246 248 260 264 268 272 276 282 284 286 288 290 296 298 300 304 308 310 312 320 324 326 348
b 165 224 246 248 260 268 272 276 282 284 286 288 290 296 298 300 304 308 310 312 320 324 326 332 348
b 166 224 246 248 260 268 272 276 282 284 288 290 296 298 300 304 308 310 312 320 324 326 332 334 348
b 167 224 246 248 260 268 272 276 282 284 290 296 298 300 304 308 310 312 320 324 326 332 334 348 356
b 168 310 312 320 324 326 332 333 334 348 356
b 169 224 246 248 260 268 272 276 282 284 290 296 298 300 304 306 308 312 320 324 326 332 334 348 356
b 170 260 282 283 284 306
b 171 224 246 248 268 272 276 282 284 290 296 298 300 304 306 308 312 320 324 326 328 332 334 348 356
b 172 282 304 305 306 328
b 173 224 246 248 268 272 276 284 290 296 298 300 304 306 308 312 320 324 326 328 330 332 334 348 356
b 174 224 246 248 268 272 276 290 296 298 300 304 306 308 312 320 324 326 328 330 332 334 348 352 356
b 175 306 308 312 320 324 326 328 329 330 332 334 348 352 356
b 176 224 246 248 268 272 276 290 296 298 300 304 308 312 320 324 326 328 330 332 334 348 352 354 356
b 177 224 246 248 268 272 276 290 296 298 300 304 312 320 324 326 328 330 332 334 348 352 354 356 376
b 178 224 246 248 268 272 276 290 296 298 300 304 312 320 324 326 328 332 334 348 352 354 356 376 378
b 179 224 246 248 268 272 276 290 296 298 300 304 312 320 324 326 328 334 348 350 352 354 356 376 378
b 180 224 246 248 268 272 276 290 296 298 300 312 320 324 326 328 334 348 350 352 354 356 372 376 378
b 181 224 246 248 268 272 276 290 296 298 300 312 320 324 328 334 348 350 352 354 356 372 374 376 378
b 182 224 246 248 268 272 276 290 296 298 300 312 320 324 334 348 350 352 354 356 372 374 376 378 396
b 183 224 246 248 268 272 276 290 296 298 300 312 320 324 334 348 352 354 356 372 374 376 378 396 400
b 184 354 356 376 377 378 400
b 185 224 246 248 268 272 276 290 296 298 300 312 320 324 334 346 348 352 356 372 374 376 378 396 400
b 186 224 246 248 268 272 276 290 296 298 312 320 324 334 346 348 352 356 370 372 374 376 378 396 400
b 187 224 246 248 268 272 276 290 296 298 312 320 334 346 348 352 356 370 372 374 376 378 392 396 400
b 188 224 246 248 268 272 276 290 296 298 312 320 334 348 352 356 370 372 374 376 378 392 396 398 400
b 189 224 246 248 268 272 276 290 296 298 312 320 334 348 356 370 372 374 376 378 392 396 398 400 420
b 190 224 246 248 268 272 276 290 296 298 312 320 334 348 356 370 372 376 378 392 396 398 399 400 420
b 191 224 246 248 268 272 276 290 296 298 312 320 334 348 356 370 372 378 392 394 396 398 399 400 420
b 192 224 246 248 268 272 276 290 296 298 312 320 334 356 370 372 378 392 394 396 398 399 400 416 420
b 193 224 246 248 268 272 276 290 296 298 312 320 334 356 372 378 392 394 395 396 398 399 400 416 420
b 194 224 246 248 268 272 276 290 296 298 312 320 334 356 378 392 394 395 396 398 399 400 416 418 420
b 195 224 246 248 268 272 276 290 296 298 312 320 334 356 378 392 394 396 398 399 400 416 418 420 440
b 196 394 416 417 418 440
b 197 224 246 248 268 272 276 290 296 298 312 320 334 356 378 392 396 398 399 400 416 418 420 440 442
b 198 224 246 248 268 272 276 290 296 298 312 320 334 356 378 392 398 399 400 416 418 420 421 440 442
b 199 224 246 248 268 272 276 290 296 298 312 320 334 356 378 392 399 400 416 418 420 421 422 440 442
b 200 224 246 248 268 272 276 290 296 298 312 320 334 356 378 392 400 416 418 420 421 422 440 441 442
b 201 224 246 248 268 272 276 290 296 298 312 320 334 356 378 392 400 416 420 421 422 440 441 442 443
b 202 224 246 248 268 272 276 290 296 298 312 320 334 356 378 392 400 416 421 422 440 441 442 443 444
b 203 224 246 248 268 272 276 290 296 298 312 320 334 356 378 392 400 416 422 440 441 442 443 444 464
b 204 224 246 248 268 272 276 290 296 298 312 320 334 356 378 392 400 416 422 440 442 443 444 464 466
b 205 224 246 248 268 272 276 290 296 298 312 320 334 356 378 392 400 416 422 440 442 444 464 466 488
b 206 224 246 248 268 272 276 290 296 298 312 320 334 356 378 392 400 416 422 440 444 464 466 488 512
b 207 224 246 248 268 272 276 290 296 298 312 320 334 356 378 400 422 444 464 466 468 488 492 512 516
b 208 224 246 248 268 272 276 290 296 298 312 320 334 356 378 400 422 424 444 448 468 470 492 516
b 209 400 422 424 444 446 448 468 470 492
b 210 424 446 447 448 470
b 211 446 468 469 470 492
b 212 422 444 445 446 468
b 213 400 422 423 424 446
b 214 224 246 248 268 272 276 290 296 298 312 320 334 356 378 400 424 448 470 472 492 496 516 520
b 215 224 246 248 268 272 276 290 296 298 312 320 334 356 378 380 400 402 424 448 472 496 520
b 216 356 378 379 380 402
b 217 378 400 401 402 424
b 218 224 246 248 268 272 276 290 296 298 312 320 334 356 380 402 404 424 426 448 472 496 520
b 219 402 424 425 426 448
b 220 380 402 403 404 426
b 221 224 246 248 268 272 276 290 296 298 312 320 334 356 380 404 426 428 448 452 472 474 496 520
b 222 404 426 428 448 450 452 472 474 496
b 223 426 448 449 450 472
b 224 428 450 451 452 474
b 225 404 426 427 428 450
b 226 450 472 473 474 496
b 227 448 470 472 492 494 496 516 520
b 228 448 470 471 472 494
b 229 470 492 493 494 516
b 230 472 494 496 516 518 520
b 231 472 494 495 496 518
b 232 494 516 517 518
b 233 496 518 519 520
b 234 444 464 466 468 488 490 492 512 516
b 235 468 488 490 492 512 514 516
b 236 468 490 491 492 514
b 237 490 492 512 513 514 516
b 238 492 512 513 514 515 516
b 239 466 488 489 490 512
b 240 444 466 467 468 490
b 241 392 416 440 464 488 510 512
b 242 392 416 438 440 464 488 510
b 243 416 438 440 464 486 488 510
b 244 464 486 487 488 510
b 245 416 438 440 462 464 486 510
b 246 438 462 486 509 510
b 247 438 461 462 486 509
b 248 461 462 485 486 509
b 249 440 462 463 464 486
b 250 416 438 439 440 462
b 251 392 415 416 438
b 252 488 510 511 512
b 253 442 464 465 466 488
b 254 396 418 419 420 442
b 255 370 392 393 394 416
b 256 348 370 371 372 394
b 257 374 396 397 398 420
b 258 352 374 375 376 398
b 259 346 369 370 392
b 260 324 346 347 348 370
b 261 300 323 324 346
b 262 350 372 373 374 396
b 263 328 350 351 352 374
b 264 326 348 349 350 372
b 265 304 326 327 328 350
b 266 332 354 355 356 378
b 267 330 352 353 354 376
b 268 308 330 331 332 354
b 269 284 306 307 308 330
b 270 288 310 311 312 334
b 271 286 308 309 310 332
b 272 264 286 287 288 310
b 273 240 262 263 264 286
b 274 216 238 239 240 262
b 275 266 288 289 290 312
b 276 244 266 267 268 290
b 277 220 242 243 244 266
b 278 218 240 241 242 264
b 279 274 296 297 298 320
b 280 250 272 273 274 296
b 281 200 222 223 224 246
b 282 198 220 221 222 244
b 283 194 216 217 218 240
b 284 176 198 199 200 222
b 285 173 195 196 197 219
b 286 206 228 229 230 252
b 287 13 17 35 37 39 59 61 83
b 288 13 35 36 37 59
b 289 37 59 60 61 83
b 290 13 15 17 37 39 61
b 291 13 14 15 37
b 292 15 37 38 39 61
b 293 15 16 17 39
b 294 9 13 31 35 55 59 79 81 83 103 106 127 128
b 295 59 81 83 103 105 106 127 128
b 296 81 103 104 105 127
b 297 59 81 82 83 105
b 298 9 13 31 35 55 57 59 79 81 103
b 299 57 79 80 81 103
b 300 9 13 31 33 35 55 57 79
b 301 33 55 56 57 79
b 302 9 31 32 33 55
b 303 9 11 13 33 35 57
b 304 9 10 11 33
b 305 11 33 34 35 57
b 306 11 12 13 35
b 307 35 57 58 59 81
b 308 186 208 210 234 256 258 278 282 300 304 324 326 348
b 309 186 208 210 232 234 256 278 300
b 310 210 232 233 234 256
b 311 186 208 209 210 232
b 312 208 232 254 256 278 300
b 313 208 231 232 254
b 314 254 277 278 300
b 315 232 254 255 256 278
b 316 234 256 258 278 280 282 300 304 324 326 348
b 317 234 256 257 258 280
b 318 256 278 280 300 302 304 324 326 348
b 319 280 302 303 304 326
b 320 302 324 325 326 348
b 321 278 300 301 302 324
b 322 256 278 279 280 302
b 323 258 280 281 282 304
b 324 146 147 168 171 190 194 212 214 216 234 238 258 260 282
b 325 190 212 214 234 236 238 258 260 282
b 326 236 258 259 260 282
b 327 190 212 213 214 236
b 328 214 236 237 238 260
b 329 212 234 235 236 258
b 330 146 147 168 171 190 192 194 214 216 238
b 331 168 190 191 192 214
b 332 146 147 168 170 171 192 194 216
b 333 170 192 193 194 216
b 334 146 168 169 170 192
b 335 192 214 215 216 238
b 336 94 116 118 142 164 166 186 190 208 210 212 234
b 337 142 164 166 186 188 190 210 212 234
b 338 164 186 187 188 210
b 339 188 210 211 212 234
b 340 142 164 165 166 188
b 341 166 188 189 190 212
b 342 94 116 118 140 142 164 186 208
b 343 118 140 141 142 164
b 344 94 116 117 118 140
b 345 116 140 162 164 186 208
b 346 162 185 186 208
b 347 140 162 163 164 186
b 348 116 139 140 162
b 349 98 99 120 123 142 144 146 166 168 190
b 350 120 142 143 144 166
b 351 144 166 167 168 190
b 352 98 99 120 122 123 144 146 168
b 353 122 144 145 146 168
b 354 98 120 121 122 144
b 355 31 53 54 55 77
b 356 5 9 28 29 31 52 53
b 357 5 7 9 29 31 53
b 358 7 8 9 31
b 359 5 6 7 29
b 360 7 29 30 31 53
b 361 72 94 95 96 118
b 362 50 72 73 74 96
b 363 28 50 51 52 74
b 364 70 93 94 116
b 365 224 246 248 268 272 276 290 296 298 312 320 334 336 356 360 380 382 404 428 452 474 496 520
b 366 224 246 248 268 272 276 290 296 298 312 320 336 360 382 384 404 408 428 430 452 474 496 520
b 367 360 382 384 404 406 408 428 430 452 474 496 520
b 368 224 246 248 268 272 276 290 296 298 312 320 336 342 360 364 384 386 408 430 452 474 496 520
b 369 224 246 248 268 272 290 292 296 312 316 320 336 340 342 360 364 384 386 408
b 370 268 290 292 312 316 336 338 340 360 364 384 386 408
b 371 268 290 292 312 314 316 336 338 360
b 372 290 312 313 314 336
b 373 292 314 315 316 338
b 374 268 290 291 292 314
b 375 314 336 337 338 360
b 376 316 338 340 360 362 364 384 386 408
b 377 316 338 339 340 362
b 378 338 360 361 362 384
b 379 362 384 385 386 408
b 380 340 362 363 364 386
b 381 224 246 248 268 272 292 294 296 316 320 340 342 364
b 382 224 246 248 268 270 272 292 294 316
b 383 246 268 269 270 292
b 384 270 292 293 294 316
b 385 224 246 247 248 270
b 386 248 270 271 272 294
b 387 272 294 296 316 318 320 340 342 364
b 388 272 294 295 296 318
b 389 296 318 319 320 342
b 390 318 340 341 342 364
b 391 294 316 317 318 340
b 392 276 298 320 342 364 386 408 430 432 452 456 474 478 496 500 520 524
b 393 276 298 320 342 364 368 386 388 390 408 412 432 456 478 500 524
b 394 364 368 386 388 390 408 412 432 434 456 478 500 524
b 395 368 390 412 434 436 456 460 478 500 524
b 396 368 390 412 414 436 460
b 397 414 436 437 460
b 398 390 412 413 414 436
b 399 368 390 391 414
b 400 412 434 436 456 460 478 500 502 524
b 401 478 500 501 502 524
b 402 412 434 436 456 460 478 480 502 524
b 403 412 434 436 456 458 460 480 502 524
b 404 436 458 460 480 502 524 526
b 405 502 524 525 526
b 406 436 458 460 480 502 504 526
b 407 436 458 460 480 482 504 526
b 408 436 458 459 460 482
b 409 458 480 481 482 504
b 410 460 482 504 526 527
b 411 460 482 483 504 527
b 412 482 483 504 505 527
b 413 480 502 503 504 526
b 414 412 434 435 436 458
b 415 434 456 457 458 480
b 416 456 478 479 480 502
b 417 364 386 388 408 410 412 432 434 456
b 418 388 410 411 412 434
b 419 364 386 387 388 410
b 420 386 408 409 410 432
b 421 410 432 433 434 456
b 422 276 298 320 342 364 366 368 388 390 412
b 423 276 298 320 342 344 366 368 390
b 424 344 366 367 368 390
b 425 320 342 343 344 366
b 426 276 298 320 322 344 368
b 427 276 298 299 322
b 428 298 320 321 322 344
b 429 322 344 345 368
b 430 342 364 365 366 388
b 431 366 388 389 390 412
b 432 408 430 432 452 456 474 476 478 496 500 520 524
b 433 408 430 432 452 454 456 476 478 500
b 434 432 454 455 456 478
b 435 454 476 477 478 500
b 436 430 452 453 454 476
b 437 408 430 431 432 454
b 438 452 474 476 496 498 500 520 524
b 439 452 474 475 476 498
b 440 476 498 500 520 522 524
b 441 498 520 521 522
b 442 500 522 523 524
b 443 476 498 499 500 522
b 444 474 496 497 498 520
b 445 360 382 383 384 406
b 446 382 404 405 406 428
b 447 406 428 429 430 452
b 448 384 406 407 408 430
b 449 312 334 336 356 358 360 380 382 404
b 450 312 334 335 336 358
b 451 334 356 357 358 380
b 452 336 358 359 360 382
b 453 358 380 381 382 404
b 454 506 528 529
b 455 484 507 508
b 456 22 23 46
1 2
2 4
3 456
3 5
4 13
5 79
6 455
6 8
7 454
7 9
8 248
9 412
10 11
11 14
11 12
12 13
14 16
14 15
16 17
17 18
18 19
19 364
19 20
20 362
20 363
20 21
21 361
21 22
22 356
22 23
23 26
23 24
24 25
26 355
26 27
27 29
27 28
29 31
29 30
31 349
31 32
32 336
32 33
33 324
33 34
34 308
34 35
35 45
35 37
35 36
37 43
37 44
37 38
38 42
38 41
38 40
38 39
45 294
45 46
46 287
46 47
47 48
48 49
49 50
50 51
51 52
52 53
53 54
54 55
55 56
56 57
57 58
58 59
59 60
60 61
61 62
62 63
63 64
64 65
65 66
66 67
67 68
68 69
69 70
70 71
71 72
72 73
73 74
74 75
75 76
76 77
77 78
78 79
79 80
80 81
81 82
82 83
83 84
84 85
85 86
86 87
87 88
88 89
89 90
90 91
91 92
92 93
93 94
94 95
95 96
96 97
97 98
98 99
99 100
100 101
101 102
102 103
103 104
104 105
105 106
106 107
107 108
108 109
109 110
110 111
111 112
112 113
113 114
114 115
115 116
116 117
117 118
118 119
119 120
120 121
121 122
122 123
123 124
124 125
125 126
126 127
127 128
128 286
128 129
129 130
130 131
131 132
132 133
133 135
133 134
135 136
136 285
136 137
137 284
137 138
138 139
139 283
139 140
140 141
141 282
141 142
142 281
142 143
143 144
144 145
145 146
146 147
147 148
148 280
148 149
149 150
150 151
151 152
151 279
152 278
152 153
153 277
153 154
154 155
155 276
155 156
156 157
157 275
157 158
158 274
158 159
159 160
160 273
160 161
161 162
162 163
162 164
164 272
164 165
165 271
165 166
166 270
166 167
167 169
167 168
169 171
169 170
171 173
171 172
173 269
173 174
174 176
174 175
176 268
176 177
177 267
177 178
178 266
178 179
179 265
179 180
180 264
180 181
181 263
181 182
182 262
182 183
183 185
183 184
185 261
185 186
186 260
186 187
187 259
187 188
188 258
188 189
189 257
189 190
190 191
191 256
191 192
192 255
192 193
193 194
194 195
195 197
195 196
197 254
197 198
198 199
199 200
200 201
201 202
202 203
203 204
204 205
205 253
205 206
206 241
206 207
207 234
207 208
208 214
208 209
209 211
209 212
209 213
209 210
214 227
214 215
215 218
215 216
215 217
218 221
218 219
218 220
221 365
221 222
222 226
222 223
222 224
222 225
227 229
227 230
227 228
230 233
230 232
230 231
234 240
234 239
234 235
235 236
235 237
237 238
241 242
241 252
242 251
242 243
243 244
243 245
245 249
245 250
245 246
246 247
247 248
287 289
287 290
287 288
290 293
290 292
290 291
294 298
294 295
295 297
295 296
298 307
298 300
298 299
300 303
300 301
300 302
303 304
303 305
303 306
308 316
308 309
309 312
309 311
309 310
312 315
312 314
312 313
316 323
316 318
316 317
318 320
318 321
318 322
318 319
324 330
324 325
325 329
325 328
325 327
325 326
330 335
330 332
330 331
332 334
332 333
336 337
336 342
337 340
337 341
337 338
337 339
342 344
342 345
342 343
345 347
345 348
345 346
349 352
349 350
349 351
352 353
352 354
356 357
357 359
357 358
357 360
365 449
365 366
366 368
366 367
367 447
367 448
367 446
367 445
368 369
368 392
369 381
369 370
370 376
370 371
371 373
371 374
371 375
371 372
376 378
376 379
376 380
376 377
381 387
381 382
382 384
382 385
382 386
382 383
387 388
387 389
387 390
387 391
392 432
392 393
393 394
393 422
394 395
394 417
395 396
395 400
396 399
396 397
396 398
400 401
400 402
402 416
402 403
403 414
403 415
403 404
404 405
404 406
406 413
406 407
407 410
407 408
407 409
410 411
411 412
417 418
417 419
417 420
417 421
422 423
422 430
422 431
423 424
423 425
423 426
426 427
426 429
426 428
432 433
432 438
433 436
433 437
433 435
433 434
438 444
438 439
438 440
440 442
440 443
440 441
449 453
449 451
449 452
449 450
